1220
2
89, 79, 45, 127, 141, 2, 4, 56, 43, 48, 113, 63, 90, 89, 7, 70, 115, 84, 142, 78, 5, 141, 13
86, 51, 60, 56, 38, 25, 40, 58, 80, 93, 41, 43, 94, 74, 21, 91, 70, 82, 12, 78, 57, 15, 44
1, 2, 2, 1, 1, 1, 2, 2, 2, 2, 1, 1, 1, 2, 1, 2, 1, 1, 1, 2, 2, 1, 1